unsat
(define-fun f ((x0 (BitVec 64)) (x1 (BitVec 64))) (BitVec 64) (bvadd x1 (bvmul x0 #b0000000000000000000000000000000000000000000000000000000000010001)))
(define-fun f ((x0 (BitVec 64)) (x1 (BitVec 64))) (BitVec 64) (bvadd x1 (bvmul x0 #b0000000000000000000000000000000000000000000000000000000000010001)))
int-arith47.sl running time : 0 m 10.812050932 s
times : 10.812050932
